c WMC file for PBN EPFL/random_control/int2float_distill_EPFL/random_control/int2float_miter written by probABC
p cnf 484 1326
43 7 -8 0
-43 -7 0
-43 8 0
44 -5 -7 0
-44 5 0
-44 7 0
45 -6 8 0
-45 6 0
-45 -8 0
46 13 45 0
-46 -13 0
-46 -45 0
47 -13 -45 0
-47 13 0
-47 45 0
48 46 47 0
-48 -46 0
-48 -47 0
49 -44 -48 0
-49 44 0
-49 48 0
50 43 49 0
-50 -43 0
-50 -49 0
51 -9 50 0
-51 9 0
-51 -50 0
52 4 6 0
-52 -4 0
-52 -6 0
53 -3 -4 0
-53 3 0
-53 4 0
54 -4 -7 0
-54 4 0
-54 7 0
55 -5 52 0
-55 5 0
-55 -52 0
56 53 54 0
-56 -53 0
-56 -54 0
57 -55 -56 0
-57 55 0
-57 56 0
58 5 -6 0
-58 -5 0
-58 6 0
59 -4 -58 0
-59 4 0
-59 58 0
60 4 -5 0
-60 -4 0
-60 5 0
61 -1 7 0
-61 1 0
-61 -7 0
62 -60 -61 0
-62 60 0
-62 61 0
63 59 62 0
-63 -59 0
-63 -62 0
64 -2 63 0
-64 2 0
-64 -63 0
65 5 7 0
-65 -5 0
-65 -7 0
66 -4 -5 0
-66 4 0
-66 5 0
67 -1 -2 0
-67 1 0
-67 2 0
68 27 67 0
-68 -27 0
-68 -67 0
69 -27 -67 0
-69 27 0
-69 67 0
70 68 69 0
-70 -68 0
-70 -69 0
71 -66 70 0
-71 66 0
-71 -70 0
72 65 71 0
-72 -65 0
-72 -71 0
73 6 72 0
-73 -6 0
-73 -72 0
74 64 73 0
-74 -64 0
-74 -73 0
75 28 -74 0
-75 -28 0
-75 74 0
76 -28 74 0
-76 28 0
-76 -74 0
77 -3 75 0
-77 3 0
-77 -75 0
78 76 -77 0
-78 -76 0
-78 77 0
79 57 78 0
-79 -57 0
-79 -78 0
80 8 79 0
-80 -8 0
-80 -79 0
81 -6 -7 0
-81 6 0
-81 7 0
82 66 -81 0
-82 -66 0
-82 81 0
83 -6 7 0
-83 6 0
-83 -7 0
84 2 -83 0
-84 -2 0
-84 83 0
85 -3 6 0
-85 3 0
-85 -6 0
86 -7 -85 0
-86 7 0
-86 85 0
87 84 86 0
-87 -84 0
-87 -86 0
88 -66 87 0
-88 66 0
-88 -87 0
89 29 88 0
-89 -29 0
-89 -88 0
90 -29 -88 0
-90 29 0
-90 88 0
91 89 90 0
-91 -89 0
-91 -90 0
92 82 91 0
-92 -82 0
-92 -91 0
93 80 -92 0
-93 -80 0
-93 92 0
94 9 93 0
-94 -9 0
-94 -93 0
95 -5 -6 0
-95 5 0
-95 6 0
96 3 8 0
-96 -3 0
-96 -8 0
97 -7 -96 0
-97 7 0
-97 96 0
98 -4 -43 0
-98 4 0
-98 43 0
99 97 98 0
-99 -97 0
-99 -98 0
100 -95 99 0
-100 95 0
-100 -99 0
101 -7 -8 0
-101 7 0
-101 8 0
102 95 -101 0
-102 -95 0
-102 101 0
103 100 102 0
-103 -100 0
-103 -102 0
104 94 -103 0
-104 -94 0
-104 103 0
105 10 104 0
-105 -10 0
-105 -104 0
106 51 105 0
-106 -51 0
-106 -105 0
107 11 106 0
-107 -11 0
-107 -106 0
108 -9 -11 0
-108 9 0
-108 11 0
109 -6 9 0
-109 6 0
-109 -9 0
110 -10 -109 0
-110 10 0
-110 109 0
111 108 110 0
-111 -108 0
-111 -110 0
112 -101 111 0
-112 101 0
-112 -111 0
113 -6 -8 0
-113 6 0
-113 8 0
114 30 113 0
-114 -30 0
-114 -113 0
115 -30 -113 0
-115 30 0
-115 113 0
116 114 115 0
-116 -114 0
-116 -115 0
117 -9 116 0
-117 9 0
-117 -116 0
118 11 117 0
-118 -11 0
-118 -117 0
119 -10 118 0
-119 10 0
-119 -118 0
120 112 119 0
-120 -112 0
-120 -119 0
121 31 -120 0
-121 -31 0
-121 120 0
122 -31 120 0
-122 31 0
-122 -120 0
123 121 122 0
-123 -121 0
-123 -122 0
124 107 123 0
-124 -107 0
-124 -123 0
125 -9 113 0
-125 9 0
-125 -113 0
126 11 125 0
-126 -11 0
-126 -125 0
127 -10 126 0
-127 10 0
-127 -126 0
128 -66 67 0
-128 66 0
-128 -67 0
129 65 128 0
-129 -65 0
-129 -128 0
130 6 129 0
-130 -6 0
-130 -129 0
131 64 130 0
-131 -64 0
-131 -130 0
132 -3 131 0
-132 3 0
-132 -131 0
133 57 132 0
-133 -57 0
-133 -132 0
134 8 133 0
-134 -8 0
-134 -133 0
135 82 88 0
-135 -82 0
-135 -88 0
136 134 -135 0
-136 -134 0
-136 135 0
137 9 136 0
-137 -9 0
-137 -136 0
138 -103 137 0
-138 103 0
-138 -137 0
139 10 138 0
-139 -10 0
-139 -138 0
140 -7 8 0
-140 7 0
-140 -8 0
141 -95 -140 0
-141 95 0
-141 140 0
142 43 141 0
-142 -43 0
-142 -141 0
143 -9 142 0
-143 9 0
-143 -142 0
144 139 143 0
-144 -139 0
-144 -143 0
145 11 144 0
-145 -11 0
-145 -144 0
146 112 127 0
-146 -112 0
-146 -127 0
147 145 -146 0
-147 -145 0
-147 146 0
148 124 147 0
-148 -124 0
-148 -147 0
149 -124 -147 0
-149 124 0
-149 147 0
150 148 149 0
-150 -148 0
-150 -149 0
151 25 53 0
-151 -25 0
-151 -53 0
152 -25 -53 0
-152 25 0
-152 53 0
153 -44 151 0
-153 44 0
-153 -151 0
154 152 -153 0
-154 -152 0
-154 153 0
155 -6 -154 0
-155 6 0
-155 154 0
156 6 7 0
-156 -6 0
-156 -7 0
157 8 9 0
-157 -8 0
-157 -9 0
158 156 -157 0
-158 -156 0
-158 157 0
159 155 -158 0
-159 -155 0
-159 158 0
160 10 11 0
-160 -10 0
-160 -11 0
161 -9 -116 0
-161 9 0
-161 116 0
162 -7 -161 0
-162 7 0
-162 161 0
163 -2 -4 0
-163 2 0
-163 4 0
164 -38 163 0
-164 38 0
-164 -163 0
165 38 -163 0
-165 -38 0
-165 163 0
166 164 165 0
-166 -164 0
-166 -165 0
167 6 8 0
-167 -6 0
-167 -8 0
168 9 -167 0
-168 -9 0
-168 167 0
169 39 168 0
-169 -39 0
-169 -168 0
170 -39 -168 0
-170 39 0
-170 168 0
171 -1 166 0
-171 1 0
-171 -166 0
172 169 170 0
-172 -169 0
-172 -170 0
173 -171 -172 0
-173 171 0
-173 172 0
174 162 173 0
-174 -162 0
-174 -173 0
175 -3 174 0
-175 3 0
-175 -174 0
176 41 54 0
-176 -41 0
-176 -54 0
177 -41 -54 0
-177 41 0
-177 54 0
178 40 161 0
-178 -40 0
-178 -161 0
179 -40 -161 0
-179 40 0
-179 161 0
180 176 177 0
-180 -176 0
-180 -177 0
181 178 -180 0
-181 -178 0
-181 180 0
182 179 -181 0
-182 -179 0
-182 181 0
183 175 182 0
-183 -175 0
-183 -182 0
184 -5 183 0
-184 5 0
-184 -183 0
185 159 -160 0
-185 -159 0
-185 160 0
186 184 -185 0
-186 -184 0
-186 185 0
187 -44 -53 0
-187 44 0
-187 53 0
188 -6 -187 0
-188 6 0
-188 187 0
189 -158 188 0
-189 158 0
-189 -188 0
190 -8 -81 0
-190 8 0
-190 81 0
191 -9 -190 0
-191 9 0
-191 190 0
192 -1 -163 0
-192 1 0
-192 163 0
193 -168 -192 0
-193 168 0
-193 192 0
194 191 193 0
-194 -191 0
-194 -193 0
195 -3 194 0
-195 3 0
-195 -194 0
196 -4 -9 0
-196 4 0
-196 9 0
197 -190 -196 0
-197 190 0
-197 196 0
198 195 197 0
-198 -195 0
-198 -197 0
199 -5 198 0
-199 5 0
-199 -198 0
200 -160 189 0
-200 160 0
-200 -189 0
201 199 -200 0
-201 -199 0
-201 200 0
202 -186 201 0
-202 186 0
-202 -201 0
203 5 -7 0
-203 -5 0
-203 7 0
204 10 -203 0
-204 -10 0
-204 203 0
205 4 -83 0
-205 -4 0
-205 83 0
206 204 205 0
-206 -204 0
-206 -205 0
207 3 206 0
-207 -3 0
-207 -206 0
208 11 207 0
-208 -11 0
-208 -207 0
209 10 -154 0
-209 -10 0
-209 154 0
210 84 204 0
-210 -84 0
-210 -204 0
211 -24 210 0
-211 24 0
-211 -210 0
212 24 -210 0
-212 -24 0
-212 210 0
213 4 211 0
-213 -4 0
-213 -211 0
214 212 -213 0
-214 -212 0
-214 213 0
215 -208 209 0
-215 208 0
-215 -209 0
216 214 -215 0
-216 -214 0
-216 215 0
217 8 216 0
-217 -8 0
-217 -216 0
218 26 -217 0
-218 -26 0
-218 217 0
219 7 -11 0
-219 -7 0
-219 11 0
220 -26 217 0
-220 26 0
-220 -217 0
221 218 219 0
-221 -218 0
-221 -219 0
222 220 -221 0
-222 -220 0
-222 221 0
223 9 222 0
-223 -9 0
-223 -222 0
224 -2 -3 0
-224 2 0
-224 3 0
225 -5 9 0
-225 5 0
-225 -9 0
226 10 -225 0
-226 -10 0
-226 225 0
227 5 8 0
-227 -5 0
-227 -8 0
228 7 -227 0
-228 -7 0
-228 227 0
229 226 228 0
-229 -226 0
-229 -228 0
230 -224 229 0
-230 224 0
-230 -229 0
231 -8 10 0
-231 8 0
-231 -10 0
232 14 225 0
-232 -14 0
-232 -225 0
233 -14 -225 0
-233 14 0
-233 225 0
234 232 233 0
-234 -232 0
-234 -233 0
235 -231 -234 0
-235 231 0
-235 234 0
236 230 235 0
-236 -230 0
-236 -235 0
237 -4 236 0
-237 4 0
-237 -236 0
238 8 -10 0
-238 -8 0
-238 10 0
239 5 10 0
-239 -5 0
-239 -10 0
240 9 10 0
-240 -9 0
-240 -10 0
241 238 239 0
-241 -238 0
-241 -239 0
242 240 -241 0
-242 -240 0
-242 241 0
243 22 242 0
-243 -22 0
-243 -242 0
244 -22 -242 0
-244 22 0
-244 242 0
245 -7 243 0
-245 7 0
-245 -243 0
246 244 -245 0
-246 -244 0
-246 245 0
247 237 246 0
-247 -237 0
-247 -246 0
248 -6 247 0
-248 6 0
-248 -247 0
249 -9 10 0
-249 9 0
-249 -10 0
250 5 -249 0
-250 -5 0
-250 249 0
251 -23 250 0
-251 23 0
-251 -250 0
252 23 -250 0
-252 -23 0
-252 250 0
253 238 251 0
-253 -238 0
-253 -251 0
254 252 -253 0
-254 -252 0
-254 253 0
255 7 254 0
-255 -7 0
-255 -254 0
256 66 -231 0
-256 -66 0
-256 231 0
257 21 256 0
-257 -21 0
-257 -256 0
258 -21 -256 0
-258 21 0
-258 256 0
259 9 257 0
-259 -9 0
-259 -257 0
260 258 -259 0
-260 -258 0
-260 259 0
261 1 -3 0
-261 -1 0
-261 3 0
262 -1 224 0
-262 1 0
-262 -224 0
263 -5 8 0
-263 5 0
-263 -8 0
264 261 -263 0
-264 -261 0
-264 263 0
265 262 -264 0
-265 -262 0
-265 264 0
266 -20 265 0
-266 20 0
-266 -265 0
267 20 -265 0
-267 -20 0
-267 265 0
268 19 -96 0
-268 -19 0
-268 96 0
269 -19 96 0
-269 19 0
-269 -96 0
270 239 268 0
-270 -239 0
-270 -268 0
271 269 -270 0
-271 -269 0
-271 270 0
272 2 271 0
-272 -2 0
-272 -271 0
273 249 266 0
-273 -249 0
-273 -266 0
274 267 -273 0
-274 -267 0
-274 273 0
275 272 -274 0
-275 -272 0
-275 274 0
276 7 275 0
-276 -7 0
-276 -275 0
277 238 260 0
-277 -238 0
-277 -260 0
278 276 -277 0
-278 -276 0
-278 277 0
279 6 278 0
-279 -6 0
-279 -278 0
280 248 255 0
-280 -248 0
-280 -255 0
281 279 -280 0
-281 -279 0
-281 280 0
282 11 281 0
-282 -11 0
-282 -281 0
283 10 -101 0
-283 -10 0
-283 101 0
284 -108 -283 0
-284 108 0
-284 283 0
285 223 284 0
-285 -223 0
-285 -284 0
286 282 -285 0
-286 -282 0
-286 285 0
287 4 210 0
-287 -4 0
-287 -210 0
288 10 -187 0
-288 -10 0
-288 187 0
289 287 288 0
-289 -287 0
-289 -288 0
290 -208 -289 0
-290 208 0
-290 289 0
291 8 290 0
-291 -8 0
-291 -290 0
292 219 291 0
-292 -219 0
-292 -291 0
293 9 292 0
-293 -9 0
-293 -292 0
294 -225 -231 0
-294 225 0
-294 231 0
295 230 294 0
-295 -230 0
-295 -294 0
296 -4 295 0
-296 4 0
-296 -295 0
297 -7 -242 0
-297 7 0
-297 242 0
298 296 297 0
-298 -296 0
-298 -297 0
299 -6 298 0
-299 6 0
-299 -298 0
300 238 250 0
-300 -238 0
-300 -250 0
301 7 300 0
-301 -7 0
-301 -300 0
302 9 -256 0
-302 -9 0
-302 256 0
303 96 239 0
-303 -96 0
-303 -239 0
304 2 303 0
-304 -2 0
-304 -303 0
305 249 265 0
-305 -249 0
-305 -265 0
306 304 -305 0
-306 -304 0
-306 305 0
307 7 306 0
-307 -7 0
-307 -306 0
308 238 302 0
-308 -238 0
-308 -302 0
309 307 -308 0
-309 -307 0
-309 308 0
310 6 309 0
-310 -6 0
-310 -309 0
311 299 301 0
-311 -299 0
-311 -301 0
312 310 -311 0
-312 -310 0
-312 311 0
313 11 312 0
-313 -11 0
-313 -312 0
314 284 293 0
-314 -284 0
-314 -293 0
315 313 -314 0
-315 -313 0
-315 314 0
316 -286 315 0
-316 286 0
-316 -315 0
317 286 -315 0
-317 -286 0
-317 315 0
318 9 -227 0
-318 -9 0
-318 227 0
319 -156 -318 0
-319 156 0
-319 318 0
320 3 -7 0
-320 -3 0
-320 7 0
321 -8 -320 0
-321 8 0
-321 320 0
322 -5 -9 0
-322 5 0
-322 9 0
323 -6 -322 0
-323 6 0
-323 322 0
324 32 323 0
-324 -32 0
-324 -323 0
325 -32 -323 0
-325 32 0
-325 323 0
326 -321 324 0
-326 321 0
-326 -324 0
327 325 -326 0
-327 -325 0
-327 326 0
328 319 327 0
-328 -319 0
-328 -327 0
329 33 -328 0
-329 -33 0
-329 328 0
330 -33 328 0
-330 33 0
-330 -328 0
331 10 329 0
-331 -10 0
-331 -329 0
332 330 -331 0
-332 -330 0
-332 331 0
333 34 332 0
-333 -34 0
-333 -332 0
334 -34 -332 0
-334 34 0
-334 332 0
335 4 11 0
-335 -4 0
-335 -11 0
336 333 -335 0
-336 -333 0
-336 335 0
337 334 -336 0
-337 -334 0
-337 336 0
338 -321 -323 0
-338 321 0
-338 323 0
339 319 338 0
-339 -319 0
-339 -338 0
340 4 -160 0
-340 -4 0
-340 160 0
341 339 -340 0
-341 -339 0
-341 340 0
342 337 -341 0
-342 -337 0
-342 341 0
343 -337 341 0
-343 337 0
-343 -341 0
344 186 -201 0
-344 -186 0
-344 201 0
345 -95 -283 0
-345 95 0
-345 283 0
346 -3 4 0
-346 3 0
-346 -4 0
347 196 346 0
-347 -196 0
-347 -346 0
348 -345 347 0
-348 345 0
-348 -347 0
349 -10 190 0
-349 10 0
-349 -190 0
350 8 -224 0
-350 -8 0
-350 224 0
351 81 350 0
-351 -81 0
-351 -350 0
352 -4 351 0
-352 4 0
-352 -351 0
353 167 352 0
-353 -167 0
-353 -352 0
354 -5 353 0
-354 5 0
-354 -353 0
355 140 354 0
-355 -140 0
-355 -354 0
356 10 355 0
-356 -10 0
-356 -355 0
357 -67 -156 0
-357 67 0
-357 156 0
358 141 357 0
-358 -141 0
-358 -357 0
359 -53 358 0
-359 53 0
-359 -358 0
360 -356 359 0
-360 356 0
-360 -359 0
361 9 360 0
-361 -9 0
-361 -360 0
362 348 349 0
-362 -348 0
-362 -349 0
363 361 -362 0
-363 -361 0
-363 362 0
364 -37 363 0
-364 37 0
-364 -363 0
365 37 -363 0
-365 -37 0
-365 363 0
366 364 365 0
-366 -364 0
-366 -365 0
367 16 346 0
-367 -16 0
-367 -346 0
368 -16 -346 0
-368 16 0
-368 346 0
369 367 368 0
-369 -367 0
-369 -368 0
370 196 369 0
-370 -196 0
-370 -369 0
371 -345 370 0
-371 345 0
-371 -370 0
372 36 371 0
-372 -36 0
-372 -371 0
373 -36 -371 0
-373 36 0
-373 371 0
374 372 373 0
-374 -372 0
-374 -373 0
375 -70 -156 0
-375 70 0
-375 156 0
376 141 375 0
-376 -141 0
-376 -375 0
377 -53 376 0
-377 53 0
-377 -376 0
378 -356 377 0
-378 356 0
-378 -377 0
379 9 378 0
-379 -9 0
-379 -378 0
380 35 -379 0
-380 -35 0
-380 379 0
381 -35 379 0
-381 35 0
-381 -379 0
382 349 374 0
-382 -349 0
-382 -374 0
383 380 -382 0
-383 -380 0
-383 382 0
384 381 -383 0
-384 -381 0
-384 383 0
385 -366 384 0
-385 366 0
-385 -384 0
386 366 -384 0
-386 -366 0
-386 384 0
387 11 385 0
-387 -11 0
-387 -385 0
388 386 -387 0
-388 -386 0
-388 387 0
389 -2 3 0
-389 2 0
-389 -3 0
390 4 -234 0
-390 -4 0
-390 234 0
391 227 390 0
-391 -227 0
-391 -390 0
392 -389 391 0
-392 389 0
-392 -391 0
393 2 -3 0
-393 -2 0
-393 3 0
394 -157 -393 0
-394 157 0
-394 393 0
395 10 394 0
-395 -10 0
-395 -394 0
396 392 -395 0
-396 -392 0
-396 395 0
397 -83 396 0
-397 83 0
-397 -396 0
398 -7 -10 0
-398 7 0
-398 10 0
399 -15 -398 0
-399 15 0
-399 398 0
400 15 398 0
-400 -15 0
-400 -398 0
401 6 399 0
-401 -6 0
-401 -399 0
402 400 -401 0
-402 -400 0
-402 401 0
403 5 -8 0
-403 -5 0
-403 8 0
404 -48 -389 0
-404 48 0
-404 389 0
405 403 404 0
-405 -403 0
-405 -404 0
406 -4 405 0
-406 4 0
-406 -405 0
407 -8 -60 0
-407 8 0
-407 60 0
408 406 407 0
-408 -406 0
-408 -407 0
409 9 408 0
-409 -9 0
-409 -408 0
410 -9 -58 0
-410 9 0
-410 58 0
411 -2 -5 0
-411 2 0
-411 5 0
412 1 411 0
-412 -1 0
-412 -411 0
413 5 -9 0
-413 -5 0
-413 9 0
414 411 413 0
-414 -411 0
-414 -413 0
415 -1 414 0
-415 1 0
-415 -414 0
416 7 8 0
-416 -7 0
-416 -8 0
417 412 -416 0
-417 -412 0
-417 416 0
418 415 -417 0
-418 -415 0
-418 417 0
419 322 418 0
-419 -322 0
-419 -418 0
420 -12 419 0
-420 12 0
-420 -419 0
421 12 -419 0
-421 -12 0
-421 419 0
422 6 420 0
-422 -6 0
-422 -420 0
423 421 -422 0
-423 -421 0
-423 422 0
424 409 410 0
-424 -409 0
-424 -410 0
425 423 -424 0
-425 -423 0
-425 424 0
426 10 425 0
-426 -10 0
-426 -425 0
427 397 402 0
-427 -397 0
-427 -402 0
428 426 -427 0
-428 -426 0
-428 427 0
429 11 428 0
-429 -11 0
-429 -428 0
430 -8 -219 0
-430 8 0
-430 219 0
431 3 -4 0
-431 -3 0
-431 4 0
432 369 431 0
-432 -369 0
-432 -431 0
433 -240 432 0
-433 240 0
-433 -432 0
434 11 433 0
-434 -11 0
-434 -433 0
435 8 434 0
-435 -8 0
-435 -434 0
436 -10 -108 0
-436 10 0
-436 108 0
437 435 436 0
-437 -435 0
-437 -436 0
438 -7 437 0
-438 7 0
-438 -437 0
439 17 -438 0
-439 -17 0
-439 438 0
440 -17 438 0
-440 17 0
-440 -438 0
441 430 439 0
-441 -430 0
-441 -439 0
442 440 -441 0
-442 -440 0
-442 441 0
443 18 -442 0
-443 -18 0
-443 442 0
444 -18 442 0
-444 18 0
-444 -442 0
445 443 444 0
-445 -443 0
-445 -444 0
446 429 445 0
-446 -429 0
-446 -445 0
447 346 431 0
-447 -346 0
-447 -431 0
448 -240 447 0
-448 240 0
-448 -447 0
449 11 448 0
-449 -11 0
-449 -448 0
450 8 449 0
-450 -8 0
-450 -449 0
451 436 450 0
-451 -436 0
-451 -450 0
452 -7 451 0
-452 7 0
-452 -451 0
453 10 419 0
-453 -10 0
-453 -419 0
454 398 453 0
-454 -398 0
-454 -453 0
455 6 454 0
-455 -6 0
-455 -454 0
456 4 -225 0
-456 -4 0
-456 225 0
457 227 456 0
-457 -227 0
-457 -456 0
458 -389 457 0
-458 389 0
-458 -457 0
459 -395 458 0
-459 395 0
-459 -458 0
460 -83 459 0
-460 83 0
-460 -459 0
461 -45 -389 0
-461 45 0
-461 389 0
462 403 461 0
-462 -403 0
-462 -461 0
463 -4 462 0
-463 4 0
-463 -462 0
464 407 463 0
-464 -407 0
-464 -463 0
465 9 464 0
-465 -9 0
-465 -464 0
466 410 465 0
-466 -410 0
-466 -465 0
467 10 466 0
-467 -10 0
-467 -466 0
468 455 460 0
-468 -455 0
-468 -460 0
469 467 -468 0
-469 -467 0
-469 468 0
470 11 469 0
-470 -11 0
-470 -469 0
471 430 452 0
-471 -430 0
-471 -452 0
472 470 -471 0
-472 -470 0
-472 471 0
473 446 472 0
-473 -446 0
-473 -472 0
474 -446 -472 0
-474 446 0
-474 472 0
475 473 474 0
-475 -473 0
-475 -474 0
476 202 344 0
-476 -202 0
-476 -344 0
477 342 -476 0
-477 -342 0
-477 476 0
478 343 -477 0
-478 -343 0
-478 477 0
479 316 -478 0
-479 -316 0
-479 478 0
480 317 -479 0
-480 -317 0
-480 479 0
481 388 -480 0
-481 -388 0
-481 480 0
482 475 -481 0
-482 -475 0
-482 481 0
483 150 -482 0
-483 -150 0
-483 482 0
42 483 0
-42 -483 0
42 0
w 1 0.500000
w 2 0.500000
w 3 0.500000
w 4 0.500000
w 5 0.500000
w 6 0.500000
w 7 0.500000
w 8 0.500000
w 9 0.500000
w 10 0.500000
w 11 0.500000
w 12 0.125000
w 13 0.125000
w 14 0.125000
w 15 0.125000
w 16 0.125000
w 17 0.125000
w 18 0.125000
w 19 0.125000
w 20 0.125000
w 21 0.125000
w 22 0.125000
w 23 0.125000
w 24 0.125000
w 25 0.125000
w 26 0.125000
w 27 0.125000
w 28 0.125000
w 29 0.125000
w 30 0.125000
w 31 0.125000
w 32 0.125000
w 33 0.125000
w 34 0.125000
w 35 0.125000
w 36 0.125000
w 37 0.125000
w 38 0.125000
w 39 0.125000
w 40 0.125000
w 41 0.125000
w 43 -1
w 44 -1
w 45 -1
w 46 -1
w 47 -1
w 48 -1
w 49 -1
w 50 -1
w 51 -1
w 52 -1
w 53 -1
w 54 -1
w 55 -1
w 56 -1
w 57 -1
w 58 -1
w 59 -1
w 60 -1
w 61 -1
w 62 -1
w 63 -1
w 64 -1
w 65 -1
w 66 -1
w 67 -1
w 68 -1
w 69 -1
w 70 -1
w 71 -1
w 72 -1
w 73 -1
w 74 -1
w 75 -1
w 76 -1
w 77 -1
w 78 -1
w 79 -1
w 80 -1
w 81 -1
w 82 -1
w 83 -1
w 84 -1
w 85 -1
w 86 -1
w 87 -1
w 88 -1
w 89 -1
w 90 -1
w 91 -1
w 92 -1
w 93 -1
w 94 -1
w 95 -1
w 96 -1
w 97 -1
w 98 -1
w 99 -1
w 100 -1
w 101 -1
w 102 -1
w 103 -1
w 104 -1
w 105 -1
w 106 -1
w 107 -1
w 108 -1
w 109 -1
w 110 -1
w 111 -1
w 112 -1
w 113 -1
w 114 -1
w 115 -1
w 116 -1
w 117 -1
w 118 -1
w 119 -1
w 120 -1
w 121 -1
w 122 -1
w 123 -1
w 124 -1
w 125 -1
w 126 -1
w 127 -1
w 128 -1
w 129 -1
w 130 -1
w 131 -1
w 132 -1
w 133 -1
w 134 -1
w 135 -1
w 136 -1
w 137 -1
w 138 -1
w 139 -1
w 140 -1
w 141 -1
w 142 -1
w 143 -1
w 144 -1
w 145 -1
w 146 -1
w 147 -1
w 148 -1
w 149 -1
w 150 -1
w 151 -1
w 152 -1
w 153 -1
w 154 -1
w 155 -1
w 156 -1
w 157 -1
w 158 -1
w 159 -1
w 160 -1
w 161 -1
w 162 -1
w 163 -1
w 164 -1
w 165 -1
w 166 -1
w 167 -1
w 168 -1
w 169 -1
w 170 -1
w 171 -1
w 172 -1
w 173 -1
w 174 -1
w 175 -1
w 176 -1
w 177 -1
w 178 -1
w 179 -1
w 180 -1
w 181 -1
w 182 -1
w 183 -1
w 184 -1
w 185 -1
w 186 -1
w 187 -1
w 188 -1
w 189 -1
w 190 -1
w 191 -1
w 192 -1
w 193 -1
w 194 -1
w 195 -1
w 196 -1
w 197 -1
w 198 -1
w 199 -1
w 200 -1
w 201 -1
w 202 -1
w 203 -1
w 204 -1
w 205 -1
w 206 -1
w 207 -1
w 208 -1
w 209 -1
w 210 -1
w 211 -1
w 212 -1
w 213 -1
w 214 -1
w 215 -1
w 216 -1
w 217 -1
w 218 -1
w 219 -1
w 220 -1
w 221 -1
w 222 -1
w 223 -1
w 224 -1
w 225 -1
w 226 -1
w 227 -1
w 228 -1
w 229 -1
w 230 -1
w 231 -1
w 232 -1
w 233 -1
w 234 -1
w 235 -1
w 236 -1
w 237 -1
w 238 -1
w 239 -1
w 240 -1
w 241 -1
w 242 -1
w 243 -1
w 244 -1
w 245 -1
w 246 -1
w 247 -1
w 248 -1
w 249 -1
w 250 -1
w 251 -1
w 252 -1
w 253 -1
w 254 -1
w 255 -1
w 256 -1
w 257 -1
w 258 -1
w 259 -1
w 260 -1
w 261 -1
w 262 -1
w 263 -1
w 264 -1
w 265 -1
w 266 -1
w 267 -1
w 268 -1
w 269 -1
w 270 -1
w 271 -1
w 272 -1
w 273 -1
w 274 -1
w 275 -1
w 276 -1
w 277 -1
w 278 -1
w 279 -1
w 280 -1
w 281 -1
w 282 -1
w 283 -1
w 284 -1
w 285 -1
w 286 -1
w 287 -1
w 288 -1
w 289 -1
w 290 -1
w 291 -1
w 292 -1
w 293 -1
w 294 -1
w 295 -1
w 296 -1
w 297 -1
w 298 -1
w 299 -1
w 300 -1
w 301 -1
w 302 -1
w 303 -1
w 304 -1
w 305 -1
w 306 -1
w 307 -1
w 308 -1
w 309 -1
w 310 -1
w 311 -1
w 312 -1
w 313 -1
w 314 -1
w 315 -1
w 316 -1
w 317 -1
w 318 -1
w 319 -1
w 320 -1
w 321 -1
w 322 -1
w 323 -1
w 324 -1
w 325 -1
w 326 -1
w 327 -1
w 328 -1
w 329 -1
w 330 -1
w 331 -1
w 332 -1
w 333 -1
w 334 -1
w 335 -1
w 336 -1
w 337 -1
w 338 -1
w 339 -1
w 340 -1
w 341 -1
w 342 -1
w 343 -1
w 344 -1
w 345 -1
w 346 -1
w 347 -1
w 348 -1
w 349 -1
w 350 -1
w 351 -1
w 352 -1
w 353 -1
w 354 -1
w 355 -1
w 356 -1
w 357 -1
w 358 -1
w 359 -1
w 360 -1
w 361 -1
w 362 -1
w 363 -1
w 364 -1
w 365 -1
w 366 -1
w 367 -1
w 368 -1
w 369 -1
w 370 -1
w 371 -1
w 372 -1
w 373 -1
w 374 -1
w 375 -1
w 376 -1
w 377 -1
w 378 -1
w 379 -1
w 380 -1
w 381 -1
w 382 -1
w 383 -1
w 384 -1
w 385 -1
w 386 -1
w 387 -1
w 388 -1
w 389 -1
w 390 -1
w 391 -1
w 392 -1
w 393 -1
w 394 -1
w 395 -1
w 396 -1
w 397 -1
w 398 -1
w 399 -1
w 400 -1
w 401 -1
w 402 -1
w 403 -1
w 404 -1
w 405 -1
w 406 -1
w 407 -1
w 408 -1
w 409 -1
w 410 -1
w 411 -1
w 412 -1
w 413 -1
w 414 -1
w 415 -1
w 416 -1
w 417 -1
w 418 -1
w 419 -1
w 420 -1
w 421 -1
w 422 -1
w 423 -1
w 424 -1
w 425 -1
w 426 -1
w 427 -1
w 428 -1
w 429 -1
w 430 -1
w 431 -1
w 432 -1
w 433 -1
w 434 -1
w 435 -1
w 436 -1
w 437 -1
w 438 -1
w 439 -1
w 440 -1
w 441 -1
w 442 -1
w 443 -1
w 444 -1
w 445 -1
w 446 -1
w 447 -1
w 448 -1
w 449 -1
w 450 -1
w 451 -1
w 452 -1
w 453 -1
w 454 -1
w 455 -1
w 456 -1
w 457 -1
w 458 -1
w 459 -1
w 460 -1
w 461 -1
w 462 -1
w 463 -1
w 464 -1
w 465 -1
w 466 -1
w 467 -1
w 468 -1
w 469 -1
w 470 -1
w 471 -1
w 472 -1
w 473 -1
w 474 -1
w 475 -1
w 476 -1
w 477 -1
w 478 -1
w 479 -1
w 480 -1
w 481 -1
w 482 -1
w 483 -1
w 42 -1
